\ENCODING=ISO-8859-1
\Problem name: ilog.cplex

Maximize
 obj: 460 x(0)#0 + 630 x(1)#1 + 640 x(2)#2 + 700 x(3)#3 + 685 x(4)#4
      + 867 x(5)#5 + 694 x(6)#6 + 629 x(7)#7 + 623 x(8)#8 + 723 x(9)#9
      + 785 x(10)#10 + 732 x(11)#11 + 1032 x(12)#12 + 729 x(13)#13
      + 504 x(14)#14 + 1019 x(15)#15 + 755 x(16)#16 + 617 x(17)#17
      + 1126 x(18)#18 + 338 x(19)#19 + 646 x(20)#20 + 670 x(21)#21
      + 941 x(22)#22 + 850 x(23)#23 + 386 x(24)#24 + 810 x(25)#25
      + 557 x(26)#26 + 568 x(27)#27 + 697 x(28)#28 + 771 x(29)#29
      + 802 x(30)#30 + 1042 x(31)#31 + 584 x(32)#32 + 681 x(33)#33
      + 669 x(34)#34 + 530 x(35)#35 + 526 x(36)#36 + 573 x(37)#37
      + 594 x(38)#38 + 872 x(39)#39 + 536 x(40)#40 + 732 x(41)#41
      + 537 x(42)#42 + 520 x(43)#43 + 770 x(44)#44 + 469 x(45)#45
      + 756 x(46)#46 + 448 x(47)#47 + 972 x(48)#48 + 478 x(49)#49
      + 852 x(50)#50 + 765 x(51)#51 + 661 x(52)#52 + 788 x(53)#53
      + 653 x(54)#54 + 601 x(55)#55 + 891 x(56)#56 + 1008 x(57)#57
      + 947 x(58)#58 + 576 x(59)#59 + 1115 x(60)#60 + 1054 x(61)#61
      + 917 x(62)#62 + 809 x(63)#63 + 552 x(64)#64 + 703 x(65)#65
      + 838 x(66)#66 + 939 x(67)#67 + 660 x(68)#68 + 587 x(69)#69
      + 663 x(70)#70 + 857 x(71)#71 + 573 x(72)#72 + 714 x(73)#73
      + 684 x(74)#74 + 781 x(75)#75 + 847 x(76)#76 + 997 x(77)#77
      + 582 x(78)#78 + 813 x(79)#79 + 885 x(80)#80 + 733 x(81)#81
      + 733 x(82)#82 + 650 x(83)#83 + 583 x(84)#84 + 936 x(85)#85
      + 787 x(86)#86 + 762 x(87)#87 + 517 x(88)#88 + 721 x(89)#89
      + 718 x(90)#90 + 802 x(91)#91 + 853 x(92)#92 + 1022 x(93)#93
      + 609 x(94)#94 + 627 x(95)#95 + 687 x(96)#96 + 637 x(97)#97
      + 853 x(98)#98 + 954 x(99)#99
Subject To
 c1:  928 x(0)#0 + 278 x(1)#1 + 856 x(2)#2 + 450 x(3)#3 + 881 x(4)#4
      + 507 x(5)#5 + 868 x(6)#6 + 117 x(7)#7 + 164 x(8)#8 + 467 x(9)#9
      + 503 x(10)#10 + 259 x(11)#11 + 785 x(12)#12 + 499 x(13)#13
      + 751 x(14)#14 + 736 x(15)#15 + 514 x(16)#16 + 471 x(17)#17
      + 935 x(18)#18 + 85 x(19)#19 + 765 x(20)#20 + 987 x(21)#21 + 550 x(22)#22
      + 386 x(23)#23 + 936 x(24)#24 + 764 x(25)#25 + 611 x(26)#26
      + 147 x(27)#27 + 104 x(28)#28 + 788 x(29)#29 + 45 x(30)#30 + 661 x(31)#31
      + 552 x(32)#32 + 991 x(33)#33 + 212 x(34)#34 + 407 x(35)#35
      + 794 x(36)#36 + 353 x(37)#37 + 57 x(38)#38 + 961 x(39)#39 + 350 x(40)#40
      + 4 x(41)#41 + 782 x(42)#42 + 517 x(43)#43 + 622 x(44)#44 + 394 x(45)#45
      + 205 x(46)#46 + 96 x(47)#47 + 805 x(48)#48 + 198 x(49)#49 + 321 x(50)#50
      + 623 x(51)#51 + 995 x(52)#52 + 235 x(53)#53 + 247 x(54)#54
      + 801 x(55)#55 + 994 x(56)#56 + 754 x(57)#57 + 883 x(58)#58
      + 353 x(59)#59 + 837 x(60)#60 + 780 x(61)#61 + 641 x(62)#62
      + 224 x(63)#63 + 485 x(64)#64 + 155 x(65)#65 + 202 x(66)#66
      + 196 x(67)#67 + 219 x(68)#68 + 905 x(69)#69 + 235 x(70)#70
      + 635 x(71)#71 + 733 x(72)#72 + 701 x(73)#73 + 300 x(74)#74
      + 997 x(75)#75 + 65 x(76)#76 + 769 x(77)#77 + 630 x(78)#78 + 28 x(79)#79
      + 75 x(80)#80 + 69 x(81)#81 + 457 x(82)#82 + 213 x(83)#83 + 590 x(84)#84
      + 945 x(85)#85 + 144 x(86)#86 + 716 x(87)#87 + 164 x(88)#88
      + 396 x(89)#89 + 158 x(90)#90 + 449 x(91)#91 + 653 x(92)#92
      + 912 x(93)#93 + 828 x(94)#94 + 892 x(95)#95 + 313 x(96)#96
      + 193 x(97)#97 + 874 x(98)#98 + 289 x(99)#99 <= 25686
 c2:  862 x(0)#0 + 618 x(1)#1 + 161 x(2)#2 + 108 x(3)#3 + 432 x(4)#4
      + 390 x(5)#5 + 442 x(6)#6 + 339 x(7)#7 + 108 x(8)#8 + 391 x(9)#9
      + 641 x(10)#10 + 342 x(11)#11 + 251 x(12)#12 + 201 x(13)#13
      + 639 x(14)#14 + 471 x(15)#15 + 174 x(16)#16 + 771 x(17)#17
      + 826 x(18)#18 + 817 x(19)#19 + 758 x(20)#20 + 603 x(21)#21
      + 452 x(22)#22 + 66 x(23)#23 + 313 x(24)#24 + 230 x(25)#25 + 430 x(26)#26
      + 881 x(27)#27 + 539 x(28)#28 + 850 x(29)#29 + 235 x(30)#30
      + 678 x(31)#31 + 34 x(32)#32 + 812 x(33)#33 + 13 x(34)#34 + 627 x(35)#35
      + 487 x(36)#36 + 761 x(37)#37 + 624 x(38)#38 + 239 x(39)#39
      + 350 x(40)#40 + 661 x(41)#41 + 807 x(42)#42 + 124 x(43)#43
      + 949 x(44)#44 + 196 x(45)#45 + 890 x(46)#46 + 69 x(47)#47 + 444 x(48)#48
      + 772 x(49)#49 + 757 x(50)#50 + 74 x(51)#51 + 80 x(52)#52 + 534 x(53)#53
      + 47 x(54)#54 + 502 x(55)#55 + 719 x(56)#56 + 25 x(57)#57 + 687 x(58)#58
      + 311 x(59)#59 + 659 x(60)#60 + 421 x(61)#61 + 630 x(62)#62
      + 251 x(63)#63 + 815 x(64)#64 + 512 x(65)#65 + 541 x(66)#66
      + 346 x(67)#67 + 395 x(68)#68 + 747 x(69)#69 + 221 x(70)#70
      + 520 x(71)#71 + 695 x(72)#72 + 914 x(73)#73 + 272 x(74)#74
      + 135 x(75)#75 + 777 x(76)#76 + 509 x(77)#77 + 803 x(78)#78
      + 111 x(79)#79 + 399 x(80)#80 + 633 x(81)#81 + 48 x(82)#82 + 661 x(83)#83
      + 51 x(84)#84 + 670 x(85)#85 + 181 x(86)#86 + 340 x(87)#87 + 545 x(88)#88
      + 678 x(89)#89 + 414 x(90)#90 + 117 x(91)#91 + 857 x(92)#92
      + 683 x(93)#93 + 363 x(94)#94 + 24 x(95)#95 + 893 x(96)#96 + 374 x(97)#97
      + 681 x(98)#98 + 928 x(99)#99 <= 23714
 c3:  107 x(0)#0 + 302 x(1)#1 + 410 x(2)#2 + 832 x(3)#3 + 351 x(4)#4
      + 654 x(5)#5 + 60 x(6)#6 + 344 x(7)#7 + 727 x(8)#8 + 77 x(9)#9
      + 161 x(10)#10 + 221 x(11)#11 + 878 x(12)#12 + 516 x(13)#13
      + 156 x(14)#14 + 963 x(15)#15 + 885 x(16)#16 + 970 x(17)#17
      + 431 x(18)#18 + 59 x(19)#19 + 302 x(20)#20 + 280 x(21)#21 + 612 x(22)#22
      + 605 x(23)#23 + 470 x(24)#24 + 35 x(25)#25 + 233 x(26)#26 + 301 x(27)#27
      + 493 x(28)#28 + 756 x(29)#29 + 715 x(30)#30 + 781 x(31)#31
      + 494 x(32)#32 + 233 x(33)#33 + 94 x(34)#34 + 717 x(35)#35 + 135 x(36)#36
      + 786 x(37)#37 + 378 x(38)#38 + 765 x(39)#39 + 16 x(40)#40 + 155 x(41)#41
      + 550 x(42)#42 + 454 x(43)#43 + 796 x(44)#44 + 445 x(45)#45
      + 953 x(46)#46 + 876 x(47)#47 + 416 x(48)#48 + 19 x(49)#49 + 332 x(50)#50
      + 501 x(51)#51 + 806 x(52)#52 + 316 x(53)#53 + 393 x(54)#54
      + 662 x(55)#55 + 593 x(56)#56 + 357 x(57)#57 + 842 x(58)#58
      + 281 x(59)#59 + 214 x(60)#60 + 885 x(61)#61 + 337 x(62)#62
      + 753 x(63)#63 + 654 x(64)#64 + 829 x(65)#65 + 211 x(66)#66
      + 777 x(67)#67 + 630 x(68)#68 + 149 x(69)#69 + 243 x(70)#70
      + 319 x(71)#71 + 83 x(72)#72 + 552 x(73)#73 + 816 x(74)#74 + 620 x(75)#75
      + 366 x(76)#76 + 379 x(77)#77 + 190 x(78)#78 + 736 x(79)#79
      + 931 x(80)#80 + 112 x(81)#81 + 685 x(82)#82 + 792 x(83)#83
      + 713 x(84)#84 + 444 x(85)#85 + 516 x(86)#86 + 80 x(87)#87 + 474 x(88)#88
      + 314 x(89)#89 + 515 x(90)#90 + 990 x(91)#91 + 887 x(92)#92
      + 454 x(93)#93 + 587 x(94)#94 + 203 x(95)#95 + 603 x(96)#96
      + 698 x(97)#97 + 423 x(98)#98 + 738 x(99)#99 <= 24477
 c4:  796 x(0)#0 + 448 x(1)#1 + 623 x(2)#2 + 974 x(3)#3 + 752 x(4)#4
      + 555 x(5)#5 + 535 x(6)#6 + 726 x(7)#7 + 645 x(8)#8 + 678 x(9)#9
      + 500 x(10)#10 + 624 x(11)#11 + 711 x(12)#12 + 401 x(13)#13
      + 786 x(14)#14 + 726 x(15)#15 + 984 x(16)#16 + 488 x(17)#17
      + 854 x(18)#18 + 162 x(19)#19 + 817 x(20)#20 + 890 x(21)#21
      + 847 x(22)#22 + 347 x(23)#23 + 26 x(24)#24 + 257 x(25)#25 + 691 x(26)#26
      + 165 x(27)#27 + 811 x(28)#28 + 462 x(29)#29 + 658 x(30)#30
      + 922 x(31)#31 + 129 x(32)#32 + 90 x(33)#33 + 597 x(34)#34 + 834 x(35)#35
      + 839 x(36)#36 + 77 x(37)#37 + 549 x(38)#38 + 67 x(39)#39 + 994 x(40)#40
      + 407 x(41)#41 + 395 x(42)#42 + 594 x(43)#43 + 186 x(44)#44
      + 519 x(45)#45 + 963 x(46)#46 + 685 x(47)#47 + 185 x(48)#48
      + 439 x(49)#49 + 927 x(50)#50 + 654 x(51)#51 + 14 x(52)#52 + 620 x(53)#53
      + 692 x(54)#54 + 327 x(55)#55 + 375 x(56)#56 + 326 x(57)#57
      + 215 x(58)#58 + 717 x(59)#59 + 440 x(60)#60 + 835 x(61)#61
      + 414 x(62)#62 + 7 x(63)#63 + 197 x(64)#64 + 652 x(65)#65 + 590 x(66)#66
      + 819 x(67)#67 + 848 x(68)#68 + 741 x(69)#69 + 728 x(70)#70 + 69 x(71)#71
      + 844 x(72)#72 + 261 x(73)#73 + 266 x(74)#74 + 446 x(75)#75
      + 246 x(76)#76 + 418 x(77)#77 + 807 x(78)#78 + 878 x(79)#79
      + 654 x(80)#80 + 921 x(81)#81 + 366 x(82)#82 + 578 x(83)#83
      + 681 x(84)#84 + 520 x(85)#85 + 635 x(86)#86 + 36 x(87)#87 + 516 x(88)#88
      + 20 x(89)#89 + 608 x(90)#90 + 845 x(91)#91 + 104 x(92)#92 + 9 x(93)#93
      + 841 x(94)#94 + 266 x(95)#95 + 408 x(96)#96 + 877 x(97)#97
      + 978 x(98)#98 + 289 x(99)#99 <= 26968
 c5:  204 x(0)#0 + 259 x(1)#1 + 673 x(2)#2 + 746 x(3)#3 + 699 x(4)#4
      + 337 x(5)#5 + 386 x(6)#6 + 190 x(7)#7 + 466 x(8)#8 + 832 x(9)#9
      + 871 x(10)#10 + 641 x(11)#11 + 566 x(12)#12 + 263 x(13)#13
      + 220 x(14)#14 + 399 x(15)#15 + 819 x(16)#16 + 694 x(17)#17
      + 828 x(18)#18 + 400 x(19)#19 + 643 x(20)#20 + 707 x(21)#21
      + 733 x(22)#22 + 347 x(23)#23 + 877 x(24)#24 + 727 x(25)#25
      + 428 x(26)#26 + 563 x(27)#27 + 707 x(28)#28 + 142 x(29)#29
      + 944 x(30)#30 + 812 x(31)#31 + 322 x(32)#32 + 360 x(33)#33
      + 247 x(34)#34 + 244 x(35)#35 + 135 x(36)#36 + 666 x(37)#37
      + 675 x(38)#38 + 273 x(39)#39 + 646 x(40)#40 + 52 x(41)#41 + 274 x(42)#42
      + 671 x(43)#43 + 938 x(44)#44 + 192 x(45)#45 + 881 x(46)#46
      + 558 x(47)#47 + 955 x(48)#48 + 264 x(49)#49 + 382 x(50)#50
      + 476 x(51)#51 + 483 x(52)#52 + 852 x(53)#53 + 799 x(54)#54
      + 392 x(55)#55 + 750 x(56)#56 + 821 x(57)#57 + 158 x(58)#58
      + 658 x(59)#59 + 645 x(60)#60 + 990 x(61)#61 + 625 x(62)#62
      + 700 x(63)#63 + 2 x(64)#64 + 555 x(65)#65 + 347 x(66)#66 + 993 x(67)#67
      + 568 x(68)#68 + 448 x(69)#69 + 165 x(70)#70 + 959 x(71)#71
      + 738 x(72)#72 + 379 x(73)#73 + 98 x(74)#74 + 950 x(75)#75 + 320 x(76)#76
      + 837 x(77)#77 + 924 x(78)#78 + 237 x(79)#79 + x(80)#80 + 667 x(81)#81
      + 442 x(82)#82 + 681 x(83)#83 + 835 x(84)#84 + 854 x(85)#85
      + 430 x(86)#86 + 964 x(87)#87 + 172 x(88)#88 + 836 x(89)#89
      + 976 x(90)#90 + 599 x(91)#91 + 310 x(92)#92 + 669 x(93)#93
      + 733 x(94)#94 + 8 x(95)#95 + 804 x(96)#96 + 677 x(97)#97 + 365 x(98)#98
      + 858 x(99)#99 <= 27804
 c6:  183 x(0)#0 + 284 x(1)#1 + 303 x(2)#2 + 648 x(3)#3 + 454 x(4)#4
      + 671 x(5)#5 + 221 x(6)#6 + 895 x(7)#7 + 874 x(8)#8 + 493 x(9)#9
      + 502 x(10)#10 + 829 x(11)#11 + 325 x(12)#12 + 825 x(13)#13
      + 111 x(14)#14 + 717 x(15)#15 + 342 x(16)#16 + 514 x(17)#17
      + 130 x(18)#18 + 488 x(19)#19 + 45 x(20)#20 + 172 x(21)#21 + 394 x(22)#22
      + 330 x(23)#23 + 166 x(24)#24 + 292 x(25)#25 + 395 x(26)#26
      + 234 x(27)#27 + 672 x(28)#28 + 573 x(29)#29 + 420 x(30)#30
      + 992 x(31)#31 + 539 x(32)#32 + 710 x(33)#33 + 882 x(34)#34 + 19 x(35)#35
      + 355 x(36)#36 + 568 x(37)#37 + 715 x(38)#38 + 978 x(39)#39
      + 295 x(40)#40 + 392 x(41)#41 + 183 x(42)#42 + 238 x(43)#43
      + 519 x(44)#44 + 281 x(45)#45 + 63 x(46)#46 + 489 x(47)#47 + 945 x(48)#48
      + 335 x(49)#49 + 746 x(50)#50 + 362 x(51)#51 + 195 x(52)#52
      + 475 x(53)#53 + 883 x(54)#54 + 387 x(55)#55 + 910 x(56)#56
      + 674 x(57)#57 + 621 x(58)#58 + 617 x(59)#59 + 543 x(60)#60
      + 876 x(61)#61 + 434 x(62)#62 + 673 x(63)#63 + 500 x(64)#64
      + 893 x(65)#65 + 341 x(66)#66 + 962 x(67)#67 + 296 x(68)#68
      + 261 x(69)#69 + 758 x(70)#70 + 30 x(71)#71 + 887 x(72)#72 + 167 x(73)#73
      + 647 x(74)#74 + 272 x(75)#75 + 328 x(76)#76 + 524 x(77)#77
      + 464 x(78)#78 + 421 x(79)#79 + 662 x(80)#80 + 454 x(81)#81
      + 543 x(82)#82 + 963 x(83)#83 + 901 x(84)#84 + 948 x(85)#85
      + 717 x(86)#86 + 666 x(87)#87 + 148 x(88)#88 + 32 x(89)#89 + 296 x(90)#90
      + 140 x(91)#91 + 271 x(92)#92 + 769 x(93)#93 + 52 x(94)#94 + 542 x(95)#95
      + 466 x(96)#96 + 169 x(97)#97 + 2 x(98)#98 + 107 x(99)#99 <= 23998
 c7:  517 x(0)#0 + 190 x(1)#1 + 948 x(2)#2 + 245 x(3)#3 + 722 x(4)#4
      + 618 x(5)#5 + 757 x(6)#6 + 555 x(7)#7 + 487 x(8)#8 + 666 x(9)#9
      + 210 x(10)#10 + 833 x(11)#11 + 811 x(12)#12 + 406 x(13)#13
      + 432 x(14)#14 + 643 x(15)#15 + 667 x(16)#16 + 340 x(17)#17
      + 893 x(18)#18 + 887 x(19)#19 + 490 x(20)#20 + 981 x(21)#21
      + 191 x(22)#22 + 997 x(23)#23 + 170 x(24)#24 + 221 x(25)#25
      + 189 x(26)#26 + 63 x(27)#27 + 213 x(28)#28 + 579 x(29)#29 + 599 x(30)#30
      + 528 x(31)#31 + 714 x(32)#32 + 652 x(33)#33 + 917 x(34)#34
      + 174 x(35)#35 + 480 x(36)#36 + 944 x(37)#37 + 954 x(38)#38
      + 383 x(39)#39 + 884 x(40)#40 + 529 x(41)#41 + 231 x(42)#42
      + 869 x(43)#43 + 322 x(44)#44 + 431 x(45)#45 + 671 x(46)#46
      + 498 x(47)#47 + 149 x(48)#48 + 189 x(49)#49 + 446 x(50)#50
      + 130 x(51)#51 + 151 x(52)#52 + 305 x(53)#53 + 184 x(54)#54
      + 354 x(55)#55 + 7 x(56)#56 + 983 x(57)#57 + 787 x(58)#58 + 596 x(59)#59
      + 286 x(60)#60 + 794 x(61)#61 + 444 x(62)#62 + 807 x(63)#63
      + 807 x(64)#64 + 423 x(65)#65 + 331 x(66)#66 + 425 x(67)#67
      + 914 x(68)#68 + 513 x(69)#69 + 557 x(70)#70 + 796 x(71)#71
      + 631 x(72)#72 + 563 x(73)#73 + 949 x(74)#74 + 33 x(75)#75 + 426 x(76)#76
      + 402 x(77)#77 + 162 x(78)#78 + 600 x(79)#79 + 228 x(80)#80
      + 279 x(81)#81 + 366 x(82)#82 + 370 x(83)#83 + 419 x(84)#84
      + 493 x(85)#85 + 340 x(86)#86 + 356 x(87)#87 + 470 x(88)#88
      + 359 x(89)#89 + 287 x(90)#90 + 789 x(91)#91 + 603 x(92)#92
      + 655 x(93)#93 + 266 x(94)#94 + 506 x(95)#95 + 869 x(96)#96
      + 365 x(97)#97 + 580 x(98)#98 + 501 x(99)#99 <= 25473
 c8:  78 x(0)#0 + 630 x(1)#1 + 839 x(2)#2 + 274 x(3)#3 + 760 x(4)#4
      + 928 x(5)#5 + 53 x(6)#6 + 957 x(7)#7 + 660 x(8)#8 + 359 x(9)#9
      + 457 x(10)#10 + 692 x(11)#11 + 702 x(12)#12 + 249 x(13)#13
      + 214 x(14)#14 + 105 x(15)#15 + 886 x(16)#16 + 129 x(17)#17
      + 299 x(18)#18 + 124 x(19)#19 + 704 x(20)#20 + 438 x(21)#21
      + 857 x(22)#22 + 721 x(23)#23 + 86 x(24)#24 + 633 x(25)#25 + 442 x(26)#26
      + 391 x(27)#27 + 195 x(28)#28 + 825 x(29)#29 + 321 x(30)#30
      + 500 x(31)#31 + 870 x(32)#32 + 230 x(33)#33 + 112 x(34)#34
      + 345 x(35)#35 + 296 x(36)#36 + 103 x(37)#37 + 726 x(38)#38
      + 329 x(39)#39 + 398 x(40)#40 + 276 x(41)#41 + 222 x(42)#42
      + 568 x(43)#43 + 597 x(44)#44 + 219 x(45)#45 + 278 x(46)#46
      + 261 x(47)#47 + 449 x(48)#48 + 268 x(49)#49 + 116 x(50)#50
      + 520 x(51)#51 + 307 x(52)#52 + 91 x(53)#53 + 696 x(54)#54 + 226 x(55)#55
      + 798 x(56)#56 + 440 x(57)#57 + 921 x(58)#58 + 439 x(59)#59
      + 1000 x(60)#60 + 232 x(61)#61 + 9 x(62)#62 + 340 x(63)#63 + 721 x(64)#64
      + 186 x(65)#65 + 640 x(66)#66 + 440 x(67)#67 + 646 x(68)#68
      + 121 x(69)#69 + 953 x(70)#70 + 965 x(71)#71 + 90 x(72)#72 + 300 x(73)#73
      + 767 x(74)#74 + 227 x(75)#75 + 856 x(76)#76 + 398 x(77)#77
      + 341 x(78)#78 + 824 x(79)#79 + 379 x(80)#80 + 366 x(81)#81
      + 496 x(82)#82 + 849 x(83)#83 + 801 x(84)#84 + 975 x(85)#85
      + 269 x(86)#86 + 335 x(87)#87 + 572 x(88)#88 + 653 x(89)#89
      + 610 x(90)#90 + 906 x(91)#91 + 495 x(92)#92 + 36 x(93)#93 + 525 x(94)#94
      + 607 x(95)#95 + 904 x(96)#96 + 537 x(97)#97 + 798 x(98)#98
      + 273 x(99)#99 <= 24026
 c9:  209 x(0)#0 + 28 x(1)#1 + 678 x(2)#2 + 808 x(3)#3 + 719 x(4)#4
      + 668 x(5)#5 + 285 x(6)#6 + 108 x(7)#7 + 415 x(8)#8 + 9 x(9)#9
      + 220 x(10)#10 + 136 x(11)#11 + 484 x(12)#12 + 512 x(13)#13
      + 719 x(14)#14 + 463 x(15)#15 + 697 x(16)#16 + 297 x(17)#17
      + 536 x(18)#18 + 136 x(19)#19 + 310 x(20)#20 + 248 x(21)#21
      + 755 x(22)#22 + 488 x(23)#23 + 37 x(24)#24 + 237 x(25)#25 + 85 x(26)#26
      + 939 x(27)#27 + 297 x(28)#28 + 723 x(29)#29 + 75 x(30)#30 + 762 x(31)#31
      + 307 x(32)#32 + 195 x(33)#33 + 109 x(34)#34 + 324 x(35)#35
      + 645 x(36)#36 + 630 x(37)#37 + 79 x(38)#38 + 933 x(39)#39 + 827 x(40)#40
      + 293 x(41)#41 + 227 x(42)#42 + 135 x(43)#43 + 108 x(44)#44
      + 729 x(45)#45 + 16 x(46)#46 + 82 x(47)#47 + 891 x(48)#48 + 49 x(49)#49
      + 488 x(50)#50 + 540 x(51)#51 + 294 x(52)#52 + 903 x(53)#53
      + 484 x(54)#54 + 625 x(55)#55 + 443 x(56)#56 + 618 x(57)#57
      + 865 x(58)#58 + 801 x(59)#59 + 782 x(60)#60 + 585 x(61)#61
      + 375 x(62)#62 + 37 x(63)#63 + 484 x(64)#64 + 236 x(65)#65 + 485 x(66)#66
      + 175 x(67)#67 + 996 x(68)#68 + 530 x(69)#69 + 102 x(70)#70 + 92 x(71)#71
      + 402 x(72)#72 + 577 x(73)#73 + 705 x(74)#74 + 883 x(75)#75
      + 739 x(76)#76 + 746 x(77)#77 + 196 x(78)#78 + 10 x(79)#79 + 504 x(80)#80
      + 776 x(81)#81 + 78 x(82)#82 + 357 x(83)#83 + 570 x(84)#84 + 165 x(85)#85
      + 343 x(86)#86 + 965 x(87)#87 + 986 x(88)#88 + 747 x(89)#89 + 72 x(90)#90
      + 90 x(91)#91 + 846 x(92)#92 + 666 x(93)#93 + 481 x(94)#94 + 968 x(95)#95
      + 434 x(96)#96 + 319 x(97)#97 + 775 x(98)#98 + 315 x(99)#99 <= 22659
 c10: 508 x(0)#0 + 415 x(1)#1 + 722 x(2)#2 + 491 x(3)#3 + 374 x(4)#4
      + 438 x(5)#5 + 191 x(6)#6 + 37 x(7)#7 + 865 x(8)#8 + 618 x(9)#9
      + 483 x(10)#10 + 455 x(11)#11 + 878 x(12)#12 + 270 x(13)#13 + 58 x(14)#14
      + 753 x(15)#15 + 492 x(16)#16 + 815 x(17)#17 + 682 x(18)#18
      + 132 x(19)#19 + 625 x(20)#20 + 745 x(21)#21 + 411 x(22)#22
      + 220 x(23)#23 + 49 x(24)#24 + 911 x(25)#25 + 522 x(26)#26 + 405 x(27)#27
      + 847 x(28)#28 + 933 x(29)#29 + 978 x(30)#30 + 54 x(31)#31 + 454 x(32)#32
      + 733 x(33)#33 + 114 x(34)#34 + 8 x(35)#35 + 198 x(36)#36 + 771 x(37)#37
      + 557 x(38)#38 + 77 x(39)#39 + 351 x(40)#40 + 641 x(41)#41 + 212 x(42)#42
      + 137 x(43)#43 + 511 x(44)#44 + 178 x(45)#45 + 675 x(46)#46
      + 186 x(47)#47 + 788 x(48)#48 + 735 x(49)#49 + 342 x(50)#50
      + 262 x(51)#51 + 8 x(52)#52 + 747 x(53)#53 + 617 x(54)#54 + 504 x(55)#55
      + 23 x(56)#56 + 127 x(57)#57 + 42 x(58)#58 + 170 x(59)#59 + 794 x(60)#60
      + 581 x(61)#61 + 360 x(62)#62 + 834 x(63)#63 + 713 x(64)#64
      + 565 x(65)#65 + 175 x(66)#66 + 732 x(67)#67 + 714 x(68)#68
      + 488 x(69)#69 + 635 x(70)#70 + 379 x(71)#71 + 596 x(72)#72
      + 512 x(73)#73 + 368 x(74)#74 + 752 x(75)#75 + 354 x(76)#76
      + 860 x(77)#77 + 674 x(78)#78 + 542 x(79)#79 + 488 x(80)#80
      + 741 x(81)#81 + 970 x(82)#82 + 163 x(83)#83 + 239 x(84)#84
      + 442 x(85)#85 + 388 x(86)#86 + 846 x(87)#87 + 705 x(88)#88
      + 131 x(89)#89 + 233 x(90)#90 + 832 x(91)#91 + 875 x(92)#92
      + 783 x(93)#93 + 911 x(94)#94 + 149 x(95)#95 + 469 x(96)#96
      + 462 x(97)#97 + 609 x(98)#98 + 264 x(99)#99 <= 24437
Bounds
 0 <= x(0)#0 <= 1
 0 <= x(1)#1 <= 1
 0 <= x(2)#2 <= 1
 0 <= x(3)#3 <= 1
 0 <= x(4)#4 <= 1
 0 <= x(5)#5 <= 1
 0 <= x(6)#6 <= 1
 0 <= x(7)#7 <= 1
 0 <= x(8)#8 <= 1
 0 <= x(9)#9 <= 1
 0 <= x(10)#10 <= 1
 0 <= x(11)#11 <= 1
 0 <= x(12)#12 <= 1
 0 <= x(13)#13 <= 1
 0 <= x(14)#14 <= 1
 0 <= x(15)#15 <= 1
 0 <= x(16)#16 <= 1
 0 <= x(17)#17 <= 1
 0 <= x(18)#18 <= 1
 0 <= x(19)#19 <= 1
 0 <= x(20)#20 <= 1
 0 <= x(21)#21 <= 1
 0 <= x(22)#22 <= 1
 0 <= x(23)#23 <= 1
 0 <= x(24)#24 <= 1
 0 <= x(25)#25 <= 1
 0 <= x(26)#26 <= 1
 0 <= x(27)#27 <= 1
 0 <= x(28)#28 <= 1
 0 <= x(29)#29 <= 1
 0 <= x(30)#30 <= 1
 0 <= x(31)#31 <= 1
 0 <= x(32)#32 <= 1
 0 <= x(33)#33 <= 1
 0 <= x(34)#34 <= 1
 0 <= x(35)#35 <= 1
 0 <= x(36)#36 <= 1
 0 <= x(37)#37 <= 1
 0 <= x(38)#38 <= 1
 0 <= x(39)#39 <= 1
 0 <= x(40)#40 <= 1
 0 <= x(41)#41 <= 1
 0 <= x(42)#42 <= 1
 0 <= x(43)#43 <= 1
 0 <= x(44)#44 <= 1
 0 <= x(45)#45 <= 1
 0 <= x(46)#46 <= 1
 0 <= x(47)#47 <= 1
 0 <= x(48)#48 <= 1
 0 <= x(49)#49 <= 1
 0 <= x(50)#50 <= 1
 0 <= x(51)#51 <= 1
 0 <= x(52)#52 <= 1
 0 <= x(53)#53 <= 1
 0 <= x(54)#54 <= 1
 0 <= x(55)#55 <= 1
 0 <= x(56)#56 <= 1
 0 <= x(57)#57 <= 1
 0 <= x(58)#58 <= 1
 0 <= x(59)#59 <= 1
 0 <= x(60)#60 <= 1
 0 <= x(61)#61 <= 1
 0 <= x(62)#62 <= 1
 0 <= x(63)#63 <= 1
 0 <= x(64)#64 <= 1
 0 <= x(65)#65 <= 1
 0 <= x(66)#66 <= 1
 0 <= x(67)#67 <= 1
 0 <= x(68)#68 <= 1
 0 <= x(69)#69 <= 1
 0 <= x(70)#70 <= 1
 0 <= x(71)#71 <= 1
 0 <= x(72)#72 <= 1
 0 <= x(73)#73 <= 1
 0 <= x(74)#74 <= 1
 0 <= x(75)#75 <= 1
 0 <= x(76)#76 <= 1
 0 <= x(77)#77 <= 1
 0 <= x(78)#78 <= 1
 0 <= x(79)#79 <= 1
 0 <= x(80)#80 <= 1
 0 <= x(81)#81 <= 1
 0 <= x(82)#82 <= 1
 0 <= x(83)#83 <= 1
 0 <= x(84)#84 <= 1
 0 <= x(85)#85 <= 1
 0 <= x(86)#86 <= 1
 0 <= x(87)#87 <= 1
 0 <= x(88)#88 <= 1
 0 <= x(89)#89 <= 1
 0 <= x(90)#90 <= 1
 0 <= x(91)#91 <= 1
 0 <= x(92)#92 <= 1
 0 <= x(93)#93 <= 1
 0 <= x(94)#94 <= 1
 0 <= x(95)#95 <= 1
 0 <= x(96)#96 <= 1
 0 <= x(97)#97 <= 1
 0 <= x(98)#98 <= 1
 0 <= x(99)#99 <= 1
Generals
 x(0)#0  x(1)#1  x(2)#2  x(3)#3  x(4)#4  x(5)#5  x(6)#6  x(7)#7  x(8)#8 
 x(9)#9  x(10)#10  x(11)#11  x(12)#12  x(13)#13  x(14)#14  x(15)#15  x(16)#16 
 x(17)#17  x(18)#18  x(19)#19  x(20)#20  x(21)#21  x(22)#22  x(23)#23 
 x(24)#24  x(25)#25  x(26)#26  x(27)#27  x(28)#28  x(29)#29  x(30)#30 
 x(31)#31  x(32)#32  x(33)#33  x(34)#34  x(35)#35  x(36)#36  x(37)#37 
 x(38)#38  x(39)#39  x(40)#40  x(41)#41  x(42)#42  x(43)#43  x(44)#44 
 x(45)#45  x(46)#46  x(47)#47  x(48)#48  x(49)#49  x(50)#50  x(51)#51 
 x(52)#52  x(53)#53  x(54)#54  x(55)#55  x(56)#56  x(57)#57  x(58)#58 
 x(59)#59  x(60)#60  x(61)#61  x(62)#62  x(63)#63  x(64)#64  x(65)#65 
 x(66)#66  x(67)#67  x(68)#68  x(69)#69  x(70)#70  x(71)#71  x(72)#72 
 x(73)#73  x(74)#74  x(75)#75  x(76)#76  x(77)#77  x(78)#78  x(79)#79 
 x(80)#80  x(81)#81  x(82)#82  x(83)#83  x(84)#84  x(85)#85  x(86)#86 
 x(87)#87  x(88)#88  x(89)#89  x(90)#90  x(91)#91  x(92)#92  x(93)#93 
 x(94)#94  x(95)#95  x(96)#96  x(97)#97  x(98)#98  x(99)#99 
End
